\ LP format - for model browsing. Use MPS format to capture full model detail.
Minimize
  0 B10(0) + 0 B17(0) + 0 B22(0) + 0 B23(0) + 0 B24(0) + 0 B28(0) + 0 B29(0)
   + 0 B31(0) + 0 B34(0) + 0 B35(0) + 0 B36(0) + 0 B37(0) + 0 B38(0)
   + 0 B40(0) + 0 B41(0) + 0 B42(0) + 0 B43(0) + 0 B45(0) + I56(1)
Subject To
 c0: 87 B0(12) + I46(14) - 1e+07 B57(5) >= -9.99952e+06
 c1: 87 B0(12) + I46(14) - 1e+07 B57(5) <= 480
 c2: 95 B1(16) + I47(18) - 1e+07 B58(5) >= -9.99952e+06
 c3: 95 B1(16) + I47(18) - 1e+07 B58(5) <= 480
 c4: 152 B4(16) + I50(18) - 1e+07 B59(5) >= -9.99952e+06
 c5: 152 B4(16) + I50(18) - 1e+07 B59(5) <= 480
 c6: 143 B6(12) + I52(14) - 1e+07 B60(5) >= -9.99952e+06
 c7: 143 B6(12) + I52(14) - 1e+07 B60(5) <= 480
 c8: 124 B7(16) + I53(18) - 1e+07 B61(5) >= -9.99952e+06
 c9: 124 B7(16) + I53(18) - 1e+07 B61(5) <= 480
 c10: B57(5) >= 0
 c11: B58(5) >= 0
 c12: B59(5) >= 0
 c13: B60(5) >= 0
 c14: B61(5) >= 0
 c15: B0(12) + B1(16) = 1
 c16: B2(12) + B3(16) = 1
 c17: B4(16) = 1
 c18: B5(16) = 1
 c19: B6(12) + B7(16) = 1
 c20: B8(12) + B9(16) = 1
 c21: - 1e+07 B0(12) + I46(14) <= 0
 c22: - 1e+07 B1(16) + I47(18) <= 0
 c23: - 1e+07 B2(12) + I48(12) <= 0
 c24: - 1e+07 B3(16) + I49(16) <= 0
 c25: - 1e+07 B4(16) + I50(18) <= 0
 c26: - 1e+07 B5(16) + I51(16) <= 0
 c27: - 1e+07 B6(12) + I52(14) <= 0
 c28: - 1e+07 B7(16) + I53(18) <= 0
 c29: - 1e+07 B8(12) + I54(12) <= 0
 c30: - 1e+07 B9(16) + I55(16) <= 0
 c31: - 54 B2(12) - 63 B3(16) + I46(14) + I47(18) - I48(12) - I49(16) >= 0
 c32: - 120 B5(16) + I50(18) - I51(16) >= 0
 c33: - 125 B8(12) - 135 B9(16) + I52(14) + I53(18) - I54(12) - I55(16)
   >= 0
 c34: - 1e+07 B0(12) - 1e+07 B2(12) + 1e+07 B11(4) - I46(14) + I48(12)
   >= -1.9999556e+07
 c35: - 1e+07 B0(12) - 1e+07 B2(12) - 1e+07 B11(4) + I46(14) - I48(12)
   >= -2.9999748e+07
 c36: - 1e+07 B1(16) - 1e+07 B3(16) + 1e+07 B11(4) - I47(18) + I49(16)
   >= -1.9999485e+07
 c37: - 1e+07 B1(16) - 1e+07 B3(16) - 1e+07 B11(4) + I47(18) - I49(16)
   >= -2.9999796e+07
 c38: - 1e+07 B1(16) - 1e+07 B4(16) + 1e+07 B12(2) - I47(18) + I50(18)
   >= -1.9999521e+07
 c39: - 1e+07 B1(16) - 1e+07 B4(16) - 1e+07 B12(2) + I47(18) - I50(18)
   >= -2.9999464e+07
 c40: - 1e+07 B1(16) - 1e+07 B5(16) + 1e+07 B13(2) - I47(18) + I51(16)
   >= -1.9999725e+07
 c41: - 1e+07 B1(16) - 1e+07 B5(16) - 1e+07 B13(2) + I47(18) - I51(16)
   >= -2.9999756e+07
 c42: - 1e+07 B0(12) - 1e+07 B6(12) + 1e+07 B14(4) - I46(14) + I52(14)
   >= -1.9999613e+07
 c43: - 1e+07 B0(12) - 1e+07 B6(12) - 1e+07 B14(4) + I46(14) - I52(14)
   >= -2.9999515e+07
 c44: - 1e+07 B1(16) - 1e+07 B7(16) + 1e+07 B14(4) - I47(18) + I53(18)
   >= -1.9999772e+07
 c45: - 1e+07 B1(16) - 1e+07 B7(16) - 1e+07 B14(4) + I47(18) - I53(18)
   >= -2.9999811e+07
 c46: - 1e+07 B0(12) - 1e+07 B8(12) + 1e+07 B15(4) - I46(14) + I54(12)
   >= -1.9999547e+07
 c47: - 1e+07 B0(12) - 1e+07 B8(12) - 1e+07 B15(4) + I46(14) - I54(12)
   >= -2.9999683e+07
 c48: - 1e+07 B1(16) - 1e+07 B9(16) + 1e+07 B15(4) - I47(18) + I55(16)
   >= -1.9999545e+07
 c49: - 1e+07 B1(16) - 1e+07 B9(16) - 1e+07 B15(4) + I47(18) - I55(16)
   >= -2.9999469e+07
 c50: - 1e+07 B0(12) - 1e+07 B2(12) + 1e+07 B16(4) + I46(14) - I48(12)
   >= -1.9999748e+07
 c51: - 1e+07 B0(12) - 1e+07 B2(12) - 1e+07 B16(4) - I46(14) + I48(12)
   >= -2.9999556e+07
 c52: - 1e+07 B1(16) - 1e+07 B3(16) + 1e+07 B16(4) + I47(18) - I49(16)
   >= -1.9999796e+07
 c53: - 1e+07 B1(16) - 1e+07 B3(16) - 1e+07 B16(4) - I47(18) + I49(16)
   >= -2.9999485e+07
 c54: - 1e+07 B3(16) - 1e+07 B4(16) + 1e+07 B18(2) - I49(16) + I50(18)
   >= -1.9999541e+07
 c55: - 1e+07 B3(16) - 1e+07 B4(16) - 1e+07 B18(2) + I49(16) - I50(18)
   >= -2.9999416e+07
 c56: - 1e+07 B3(16) - 1e+07 B5(16) + 1e+07 B19(2) - I49(16) + I51(16)
   >= -1.9999497e+07
 c57: - 1e+07 B3(16) - 1e+07 B5(16) - 1e+07 B19(2) + I49(16) - I51(16)
   >= -2.9999618e+07
 c58: - 1e+07 B2(12) - 1e+07 B6(12) + 1e+07 B20(4) - I48(12) + I52(14)
   >= -1.9999511e+07
 c59: - 1e+07 B2(12) - 1e+07 B6(12) - 1e+07 B20(4) + I48(12) - I52(14)
   >= -2.9999711e+07
 c60: - 1e+07 B3(16) - 1e+07 B7(16) + 1e+07 B20(4) - I49(16) + I53(18)
   >= -1.9999813e+07
 c61: - 1e+07 B3(16) - 1e+07 B7(16) - 1e+07 B20(4) + I49(16) - I53(18)
   >= -2.9999812e+07
 c62: - 1e+07 B2(12) - 1e+07 B8(12) + 1e+07 B21(4) - I48(12) + I54(12)
   >= -1.9999881e+07
 c63: - 1e+07 B2(12) - 1e+07 B8(12) - 1e+07 B21(4) + I48(12) - I54(12)
   >= -2.9999759e+07
 c64: - 1e+07 B3(16) - 1e+07 B9(16) + 1e+07 B21(4) - I49(16) + I55(16)
   >= -1.9999361e+07
 c65: - 1e+07 B3(16) - 1e+07 B9(16) - 1e+07 B21(4) + I49(16) - I55(16)
   >= -2.9999195e+07
 c66: - 1e+07 B4(16) - 1e+07 B5(16) + 1e+07 B25(2) - I50(18) + I51(16)
   >= -1.9999293e+07
 c67: - 1e+07 B4(16) - 1e+07 B5(16) - 1e+07 B25(2) + I50(18) - I51(16)
   >= -2.999955e+07
 c68: - 1e+07 B4(16) - 1e+07 B7(16) + 1e+07 B26(2) - I50(18) + I53(18)
   >= -1.9999491e+07
 c69: - 1e+07 B4(16) - 1e+07 B7(16) - 1e+07 B26(2) + I50(18) - I53(18)
   >= -2.99993e+07
 c70: - 1e+07 B4(16) - 1e+07 B9(16) + 1e+07 B27(2) - I50(18) + I55(16)
   >= -1.9999476e+07
 c71: - 1e+07 B4(16) - 1e+07 B9(16) - 1e+07 B27(2) + I50(18) - I55(16)
   >= -2.9999753e+07
 c72: - 1e+07 B4(16) - 1e+07 B5(16) + 1e+07 B30(2) + I50(18) - I51(16)
   >= -1.999955e+07
 c73: - 1e+07 B4(16) - 1e+07 B5(16) - 1e+07 B30(2) - I50(18) + I51(16)
   >= -2.9999293e+07
 c74: - 1e+07 B5(16) - 1e+07 B7(16) + 1e+07 B32(2) - I51(16) + I53(18)
   >= -1.9999649e+07
 c75: - 1e+07 B5(16) - 1e+07 B7(16) - 1e+07 B32(2) + I51(16) - I53(18)
   >= -2.9999456e+07
 c76: - 1e+07 B5(16) - 1e+07 B9(16) + 1e+07 B33(2) - I51(16) + I55(16)
   >= -1.9999748e+07
 c77: - 1e+07 B5(16) - 1e+07 B9(16) - 1e+07 B33(2) + I51(16) - I55(16)
   >= -2.9999663e+07
 c78: - 1e+07 B6(12) - 1e+07 B8(12) + 1e+07 B39(4) - I52(14) + I54(12)
   >= -1.9999412e+07
 c79: - 1e+07 B6(12) - 1e+07 B8(12) - 1e+07 B39(4) + I52(14) - I54(12)
   >= -2.9999683e+07
 c80: - 1e+07 B7(16) - 1e+07 B9(16) + 1e+07 B39(4) - I53(18) + I55(16)
   >= -1.9999408e+07
 c81: - 1e+07 B7(16) - 1e+07 B9(16) - 1e+07 B39(4) + I53(18) - I55(16)
   >= -2.9999621e+07
 c82: - 1e+07 B6(12) - 1e+07 B8(12) + 1e+07 B44(4) + I52(14) - I54(12)
   >= -1.9999683e+07
 c83: - 1e+07 B6(12) - 1e+07 B8(12) - 1e+07 B44(4) - I52(14) + I54(12)
   >= -2.9999412e+07
 c84: - 1e+07 B7(16) - 1e+07 B9(16) + 1e+07 B44(4) + I53(18) - I55(16)
   >= -1.9999621e+07
 c85: - 1e+07 B7(16) - 1e+07 B9(16) - 1e+07 B44(4) - I53(18) + I55(16)
   >= -2.9999408e+07
 c86: I46(14) >= 0
 c87: I47(18) >= 0
 c88: - 480 B2(12) + I48(12) >= 0
 c89: I48(12) >= 0
 c90: - 480 B3(16) + I49(16) >= 0
 c91: I49(16) >= 0
 c92: I50(18) >= 0
 c93: - 480 B5(16) + I51(16) >= 0
 c94: I51(16) >= 0
 c95: I52(14) >= 0
 c96: I53(18) >= 0
 c97: - 480 B8(12) + I54(12) >= 0
 c98: I54(12) >= 0
 c99: - 480 B9(16) + I55(16) >= 0
 c100: I55(16) >= 0
 qc0: I56(1) + 393 B57(5) + 385 B58(5) + 328 B59(5) + 337 B60(5)
   + 356 B61(5) + [ - I46(14) * B57(5) - I47(18) * B58(5)
   - I50(18) * B59(5) - I52(14) * B60(5) - I53(18) * B61(5) ] >= 0
Bounds
Binaries
 B0(12) B1(16) B2(12) B3(16) B4(16) B5(16) B6(12) B7(16) B8(12) B9(16)
 B10(0) B11(4) B12(2) B13(2) B14(4) B15(4) B16(4) B17(0) B18(2) B19(2)
 B20(4) B21(4) B22(0) B23(0) B24(0) B25(2) B26(2) B27(2) B28(0) B29(0)
 B30(2) B31(0) B32(2) B33(2) B34(0) B35(0) B36(0) B37(0) B38(0) B39(4)
 B40(0) B41(0) B42(0) B43(0) B44(4) B45(0) B57(5) B58(5) B59(5) B60(5)
 B61(5)
Generals
 I46(14) I47(18) I48(12) I49(16) I50(18) I51(16) I52(14) I53(18) I54(12)
 I55(16) I56(1)
End
